45
1000
199	7
198	5
196	3
195	4
194	2
193	3
192	1
191	2
190	1
189	3
188	1
187	1
186	5
185	3
184	4
183	4
181	1
180	1
179	2
178	2
177	1
176	1
175	2
174	2
173	2
171	4
170	2
169	2
168	4
167	2
166	1
165	3
164	2
163	5
162	4
161	3
160	3
159	3
158	4
157	3
155	2
154	3
153	3
152	2
151	2
